==> MAXTIME              = 3600
==> OUTPUTLOG            = 1
==> HEURSEARCHROOTCUTFREQ = 5
FICO Xpress v8.5.9, solve started 23:42:29, Jun 8, 2019
Maximizing MILP Seating model
Original problem has:
       230 rows          300 cols         7440 elements       300 globals
Presolved problem has:
       103 rows          204 cols         2431 elements       198 globals
LP relaxation tightened
Will try to keep branch and bound tree memory usage below 7.2GB
 *** Heuristic solution found:    22.000000      Time: 0 ***
Starting concurrent solve with dual

 Concurrent-Solve,   0s
            Dual        
    objective   dual inf
 D  102.00000   .0000000
------- optimal --------
Concurrent statistics:
      Dual: 34 simplex iterations, 0.00s
Optimal solution found
 
   Its         Obj Value      S   Ninf  Nneg   Sum Dual Inf  Time
    34        102.000000      D      0     0        .000000     0
Dual solved problem
  34 simplex iterations in 0s

Final objective                         : 1.020000000000000e+02
  Max primal violation      (abs / rel) : 1.110e-16 / 9.869e-17
  Max dual violation        (abs / rel) :       0.0 /       0.0
  Max complementarity viol. (abs / rel) :       0.0 /       0.0
All values within tolerances

Starting root cutting & heuristics
 
 Its Type    BestSoln    BestBound   Sols    Add    Del     Gap     GInf   Time
   1  K     22.000000   102.000000      1     99      0   78.43%      29      0
   2  K     22.000000   102.000000      1    111     81   78.43%      43      0
   3  K     22.000000   102.000000      1     92    101   78.43%      48      0
b           28.000000   102.000000      2                 72.55%       0      0
   4  K     28.000000   102.000000      2     87     94   72.55%      35      0
R           35.000000   102.000000      3                 65.69%       0      0
M           39.000000   102.000000      4                 61.76%       0      0
   5  K     39.000000   102.000000      4    100     83   61.76%      49      0
   6  K     39.000000   102.000000      4     93     97   61.76%      47      0
   7  K     39.000000   102.000000      4     91     89   61.76%      58      0
   8  K     39.000000   102.000000      4     80     96   61.76%      35      0
   9  K     39.000000   102.000000      4     98     72   61.76%      65      0
  10  K     39.000000   102.000000      4     88     89   61.76%      74      0
b           40.000000   102.000000      5                 60.78%       0      0
  11  K     40.000000   102.000000      5     78     80   60.78%      72      0
  12  K     40.000000   102.000000      5     79     69   60.78%      82      0
  13  K     40.000000   102.000000      5     74     86   60.78%      76      0
  14  K     40.000000   102.000000      5     88     79   60.78%      73      0
  15  K     40.000000   102.000000      5     85     82   60.78%      80      0
  16  K     40.000000   102.000000      5     78     83   60.78%      85      0
b           45.000000   102.000000      6                 55.88%       0      0
  17  K     45.000000   102.000000      6     91    102   55.88%      54      0
  18  K     45.000000   102.000000      6     98     85   55.88%      65      0
  19  K     45.000000   102.000000      6     91     72   55.88%      87      0
  20  K     45.000000   102.000000      6     82    169   55.88%      80      0
  21  G     45.000000   102.000000      6     26      5   55.88%      90      0
  22  G     45.000000   102.000000      6     64    111   55.88%      59      0
k           49.000000   102.000000      7                 51.96%       0      0
Heuristic search started
Heuristic search stopped
 
Cuts in the matrix         : 48
Cut elements in the matrix : 1447
 
Starting tree search.
Deterministic mode with up to 4 running threads and up to 8 tasks.
 
    Node     BestSoln    BestBound   Sols Active  Depth     Gap     GInf   Time
       1    49.000000   102.000000      7      2      1   51.96%      41      0
       2    49.000000   102.000000      7      2      2   51.96%      45      0
       3    49.000000   102.000000      7      2      2   51.96%      30      0
       4    49.000000   102.000000      7      2      3   51.96%      37      1
       5    49.000000   102.000000      7      2      3   51.96%      29      1
       6    49.000000   102.000000      7      2      4   51.96%      25      1
       7    49.000000   102.000000      7      5      4   51.96%      36      1
       8    49.000000   102.000000      7      8      4   51.96%      31      1
       9    49.000000   102.000000      7      8      3   51.96%      54      1
      10    49.000000   102.000000      7      8      5   51.96%      32      1
      20    49.000000   102.000000      7     17      5   51.96%      43      1
      32    49.000000   102.000000      7     17     13   51.96%      42      1
      43    49.000000   102.000000      7     17     15   51.96%      50      1
      55    49.000000   102.000000      7     17     18   51.96%      46      1
      66    49.000000   102.000000      7     17     36   51.96%      24      1
      89    49.000000   102.000000      7     17     52   51.96%      40      1
     105    49.000000   102.000000      7     17     60   51.96%      49      1
     213    49.000000   102.000000      7     89     32   51.96%      24      1
     322    49.000000   102.000000      7     89     58   51.96%       9      1
B&B tree size: 1.9MB total
 
    Node     BestSoln    BestBound   Sols Active  Depth     Gap     GInf   Time
a    347    50.000000   102.000000      8     89     35   50.98%       0      1
     429    50.000000   102.000000      8    173     40   50.98%      28      1
     534    50.000000   102.000000      8    173     13   50.98%      46      2
     657    50.000000   102.000000      8    173     64   50.98%       8      2
     765    50.000000   102.000000      8    173     47   50.98%      36      2
     874    50.000000   102.000000      8    173     45   50.98%      35      2
     980    50.000000   102.000000      8    173     61   50.98%      37      2
    1083    50.000000   102.000000      8    277     25   50.98%      28      2
    1193    50.000000   102.000000      8    277     40   50.98%      24      2
    1299    50.000000   102.000000      8    277     59   50.98%       6      2
a   1403    54.000000   102.000000      9    277     77   47.06%       0      2
    1407    54.000000   102.000000      9    277     77   47.06%      16      2
    1513    54.000000   102.000000      9    277     42   47.06%      38      2
    1617    54.000000   102.000000      9    277     59   47.06%      23      2
    1722    54.000000   102.000000      9    277     59   47.06%      47      2
    1831    54.000000   102.000000      9    277     68   47.06%      32      2
    1946    54.000000   102.000000      9    277     76   47.06%      34      2
    2051    54.000000   102.000000      9    277     10   47.06%      26      3
    2156    54.000000   102.000000      9    277     60   47.06%      30      3
    2280    54.000000   102.000000      9    277     63   47.06%      13      3
B&B tree size: 7.8MB total
 
    Node     BestSoln    BestBound   Sols Active  Depth     Gap     GInf   Time
    2386    54.000000   102.000000      9    277     21   47.06%      30      3
    2491    54.000000   102.000000      9    277     29   47.06%      33      3
    2608    54.000000   102.000000      9    277     77   47.06%      17      3
    2715    54.000000   102.000000      9    277     55   47.06%      33      3
    2827    54.000000   102.000000      9    277     63   47.06%      20      3
    2966    54.000000   102.000000      9    545      1   47.06%       1      3
    3075    54.000000   102.000000      9    545     86   47.06%      29      3
    3183    54.000000   102.000000      9    545     79   47.06%      28      3
    3287    54.000000   102.000000      9    545     80   47.06%      31      3
    3394    54.000000   102.000000      9    545     70   47.06%      28      3
    3496    54.000000   102.000000      9    545     85   47.06%      26      4
    3613    54.000000   102.000000      9    545     35   47.06%      35      4
    3714    54.000000   102.000000      9    545     68   47.06%      37      4
    3820    54.000000   102.000000      9    545     75   47.06%      37      4
    3947    54.000000   102.000000      9    545     82   47.06%      25      4
    4059    54.000000   102.000000      9    831     66   47.06%      40      4
    4180    54.000000   102.000000      9   1128      1   47.06%       1      4
    4291    54.000000   102.000000      9   1377     78   47.06%      30      4
    4395    54.000000   102.000000      9   1647     64   47.06%      18      4
    4503    54.000000   102.000000      9   1938     43   47.06%      44      4
B&B tree size: 13MB total
 
    Node     BestSoln    BestBound   Sols Active  Depth     Gap     GInf   Time
    4609    54.000000   101.895833      9   2537     29   47.00%      19      4
    4713    54.000000   101.895833      9   2537     59   47.00%      22      4
    4818    54.000000   101.895833      9   2537     62   47.00%      22      4
    4925    54.000000   101.895833      9   2537     73   47.00%      34      4
    5054    54.000000   101.895833      9   2537     83   47.00%      10      5
    5159    54.000000   101.895833      9   2537     32   47.00%      27      5
    5266    54.000000   101.895833      9   2537     82   47.00%      21      5
    5368    54.000000   101.895833      9   2537     69   47.00%      35      5
    5488    54.000000   101.895833      9   2537     73   47.00%      13      5
    5591    54.000000   101.895833      9   2537     16   47.00%      29      5
    5706    54.000000   101.895833      9   2537     28   47.00%      19      5
    5811    54.000000   101.895833      9   2537     68   47.00%      52      5
    5919    54.000000   101.895833      9   2537     60   47.00%      29      5
    6026    54.000000   101.895833      9   2537     32   47.00%      31      5
    6130    54.000000   101.895833      9   2537     39   47.00%      23      5
    6233    54.000000   101.895833      9   2537     35   47.00%      34      5
    6335    54.000000   101.895833      9   2537     86   47.00%      11      5
    6436    54.000000   101.895833      9   2537     46   47.00%      12      5
R   6468    60.000000   101.895833     10   2537      7   41.12%       0      5
    6552    60.000000   101.895833     10   2537     46   41.12%      28      5
B&B tree size: 16MB total
 
    Node     BestSoln    BestBound   Sols Active  Depth     Gap     GInf   Time
    6652    60.000000   101.895833     10   2537     75   41.12%      39      5
    6757    60.000000   101.895833     10   2537     28   41.12%      16      6
    6977    60.000000   101.895833     10   2434      1   41.12%       1      6
    7089    60.000000   101.895833     10   2434     51   41.12%      39      6
    7196    60.000000   101.895833     10   2434     71   41.12%      48      6
    7311    60.000000   101.895833     10   2434     80   41.12%      26      6
    7446    60.000000   101.895833     10   2591      1   41.12%       1      6
    7553    60.000000   101.895833     10   2591     22   41.12%      39      6
    7697    60.000000   101.895833     10   2759      1   41.12%       1      6
    7799    60.000000   101.895833     10   2759     79   41.12%      30      6
    7907    60.000000   101.895833     10   2759     82   41.12%      36      6
    8012    60.000000   101.895833     10   2890     53   41.12%      18      6
    8132    60.000000   101.895833     10   3084     54   41.12%      29      6
    8237    60.000000   101.895833     10   3084     76   41.12%      45      6
    8358    60.000000   101.895833     10   3233      1   41.12%       1      6
    8465    60.000000   101.895833     10   3233     59   41.12%      14      6
    8570    60.000000   101.895833     10   3233     73   41.12%      27      6
    8679    60.000000   101.895833     10   3233     39   41.12%      27      6
    8780    60.000000   101.895833     10   3233     28   41.12%      23      6
    8880    60.000000   101.895833     10   3233     73   41.12%      31      7
B&B tree size: 19MB total
 
    Node     BestSoln    BestBound   Sols Active  Depth     Gap     GInf   Time
    8991    60.000000   101.895833     10   3233     44   41.12%      25      7
    9105    60.000000   101.895833     10   3233     86   41.12%      23      7
    9221    60.000000   101.895833     10   3392     38   41.12%      26      7
    9328    60.000000    99.624508     10   3574     32   39.77%      31      7
    9430    60.000000    99.624508     10   3574     86   39.77%      20      7
    9535    60.000000    99.624508     10   3611     71   39.77%      34      7
    9636    60.000000    99.624508     10   3611     39   39.77%      31      7
    9744    60.000000    99.624508     10   3611     39   39.77%      14      7
    9846    60.000000    99.624508     10   3611     73   39.77%      31      7
    9951    60.000000    99.624508     10   3611     28   39.77%      39      7
   10062    60.000000    99.624508     10   3611     44   39.77%      20      7
   11069    60.000000    95.966125     10   4317     32   37.48%      20      8
   12070    60.000000    94.449922     10   4727     47   36.47%      31      8
   13072    60.000000    94.449922     10   5061      1   36.47%       1      9
   14085    60.000000    91.862994     10   5477     70   34.69%      27     10
   15095    60.000000    91.862994     10   5589     80   34.69%      26     10
   16105    60.000000    90.426282     10   6003     57   33.65%      16     11
   17109    60.000000    89.880117     10   6275     64   33.24%      35     11
   18116    60.000000    89.294872     10   6478     76   32.81%      27     12
   19123    60.000000    89.000000     10   6733     80   32.58%      29     12
B&B tree size: 33MB total
 
    Node     BestSoln    BestBound   Sols Active  Depth     Gap     GInf   Time
   20136    60.000000    88.183772     10   7035     39   31.96%      23     13
   21138    60.000000    88.000000     10   7165     83   31.82%      29     14
   22161    60.000000    88.000000     10   7366     75   31.82%      24     15
   23165    60.000000    88.000000     10   7978     49   31.82%      51     15
   24181    60.000000    88.000000     10   8204     44   31.82%      40     16
   25186    60.000000    87.450464     10   8429     45   31.39%      24     17
   26187    60.000000    86.297222     10   8952      1   30.47%       1     17
   27191    60.000000    86.000000     10   9083     19   30.23%      32     18
   28193    60.000000    86.000000     10   9312     28   30.23%      26     19
   29209    60.000000    85.478505     10   9550     28   29.81%      21     20
   30213    60.000000    85.063158     10   9759     47   29.46%      18     20
   31224    60.000000    85.000000     10  10051     60   29.41%      39     21
   32227    60.000000    85.000000     10  10241     60   29.41%      16     22
   33234    60.000000    85.000000     10  10496     57   29.41%      38     23
   34234    60.000000    85.000000     10  10705     49   29.41%      33     23
   35240    60.000000    85.000000     10  10919     63   29.41%      40     24
   36256    60.000000    85.000000     10  11135     53   29.41%      17     24
   37273    60.000000    85.000000     10  11407     53   29.41%      28     25
   38278    60.000000    84.550917     10  11495     55   29.04%      21     26
   39291    60.000000    84.289107     10  11597     75   28.82%      37     26
B&B tree size: 56MB total
 
    Node     BestSoln    BestBound   Sols Active  Depth     Gap     GInf   Time
   40297    60.000000    84.092614     10  11797     48   28.65%      21     27
   41302    60.000000    84.016506     10  11953     77   28.59%      37     27
   42312    60.000000    83.898875     10  12194     49   28.49%      26     28
   43322    60.000000    83.702703     10  12361     86   28.32%      32     28
   44341    60.000000    83.541667     10  12649     80   28.18%      34     29
   45350    60.000000    83.092126     10  12927     55   27.79%      31     30
   46354    60.000000    83.000000     10  13021     69   27.71%      31     30
   47356    60.000000    83.000000     10  13207     72   27.71%      27     31
   48365    60.000000    83.000000     10  13331     50   27.71%      36     31
   49367    60.000000    83.000000     10  13566     72   27.71%      33     32
   50369    60.000000    82.600496     10  13839     75   27.36%      35     33
   51384    60.000000    82.527045     10  13960     64   27.30%      16     33
   52394    60.000000    82.094105     10  14195     50   26.91%      28     34
   53406    60.000000    82.055151     10  14214     31   26.88%      16     35
   54410    60.000000    82.000000     10  14517     42   26.83%      16     35
   55410    60.000000    82.000000     10  14699     32   26.83%      25     36
   56425    60.000000    82.000000     10  14872     80   26.83%      18     36
   57431    60.000000    82.000000     10  14946     40   26.83%      16     37
   58440    60.000000    82.000000     10  15082     58   26.83%      14     37
   59454    60.000000    81.935614     10  15236     68   26.77%      42     38
B&B tree size: 74MB total
 
    Node     BestSoln    BestBound   Sols Active  Depth     Gap     GInf   Time
   60465    60.000000    81.741968     10  15405     83   26.60%      41     38
   61477    60.000000    81.584974     10  15650     62   26.46%      22     39
   62484    60.000000    81.362500     10  15828     17   26.26%      35     40
   63497    60.000000    81.116959     10  15942     61   26.03%      28     40
   64497    60.000000    81.000000     10  16158     34   25.93%      47     41
   65512    60.000000    81.000000     10  16280     63   25.93%      31     42
   66522    60.000000    81.000000     10  16382     60   25.93%      19     42
   67531    60.000000    81.000000     10  16577     26   25.93%      22     43
   68544    60.000000    80.944444     10  16659     38   25.88%       9     43
   69549    60.000000    80.821300     10  16789     16   25.76%      18     44
   70553    60.000000    80.650401     10  16901     60   25.60%      38     45
   71557    60.000000    80.500000     10  17106     38   25.47%      41     45
   72560    60.000000    80.222222     10  17313     28   25.21%      27     46
   73568    60.000000    80.166667     10  17384     32   25.16%      31     46
   74578    60.000000    80.000000     10  17643     40   25.00%      37     47
   75581    60.000000    80.000000     10  17706     45   25.00%      33     48
   76589    60.000000    80.000000     10  17866     35   25.00%      28     48
   77593    60.000000    80.000000     10  17934     57   25.00%      53     49
   78605    60.000000    79.924076     10  18041     73   24.93%      28     49
   79623    60.000000    79.809332     10  18191     45   24.82%      39     50
B&B tree size: 89MB total
 
    Node     BestSoln    BestBound   Sols Active  Depth     Gap     GInf   Time
   80623    60.000000    79.743421     10  18232     64   24.76%      33     50
   81627    60.000000    79.539130     10  18390     33   24.57%      35     51
   82634    60.000000    79.453956     10  18462     29   24.48%      38     51
User interrupt (9) triggered.
 *** Search unfinished ***    Time:    52 Nodes:      82727
Number of integer feasible solutions found is 10
Best integer solution found is    60.000000
Best bound is    79.453956
